words_hard_train/615.qaiger
aag 67 16 0 1 51
2
4
8
12
16
24
36
48
56
66
82
90
100
108
118
120
134
6 2 4
10 6 8
14 10 12
18 15 17
20 14 16
22 19 21
26 23 25
28 22 24
30 27 29
32 11 13
34 33 15
38 35 37
40 34 36
42 39 41
44 7 9
46 45 11
50 47 49
52 46 48
54 51 53
58 57 5
60 56 4
62 59 61
64 63 2
68 64 66
70 62 3
72 70 67
74 69 73
76 54 75
78 42 76
80 30 78
84 21 83
86 20 82
88 85 87
92 88 91
94 89 90
96 93 95
98 80 97
102 87 101
104 86 100
106 103 105
110 107 109
112 106 108
114 111 113
116 98 114
122 118 121
124 119 120
126 123 125
128 127 105
130 126 104
132 129 131
134 116 133
i0 2 y1[0]
i1 2 y1[1]
i2 2 y1[2]
i3 2 y1[3]
i4 2 y1[4]
i5 1 x2[4]
i6 1 x2[3]
i7 1 x2[2]
i8 1 x2[1]
i9 1 x2[0]
i10 2 y1[5]
i11 1 x2[5]
i12 2 y1[6]
i13 1 x2[6]
i14 2 y1[7]
i15 1 x2[7]
o0 bool[0]
c
simplified
  ==
    unary minus
      1
    xor
      1 x2
      add
        2 y1
        1
