words_hard_train/615.qaiger.qdimacs
p cnf 67 154
a 33 12 45 60 18 54 24 28 0
e 1 2 3 4 5 6 7 8 9 10 11 13 14 15 16 17 19 20 21 22 23 25 26 27 29 30 31 32 34 35 36 37 38 39 40 41 42 43 44 46 47 48 49 50 51 52 53 55 56 57 58 59 61 62 63 64 65 66 67 0
-1 -2 3 0
1 -3 0
2 -3 0
-3 -4 5 0
3 -5 0
4 -5 0
-5 -6 7 0
5 -7 0
6 -7 0
7 8 9 0
-7 -9 0
-8 -9 0
-7 -8 10 0
7 -10 0
8 -10 0
9 10 11 0
-9 -11 0
-10 -11 0
11 12 13 0
-11 -13 0
-12 -13 0
-11 -12 14 0
11 -14 0
12 -14 0
13 14 15 0
-13 -15 0
-14 -15 0
5 6 16 0
-5 -16 0
-6 -16 0
16 7 17 0
-16 -17 0
-7 -17 0
17 18 19 0
-17 -19 0
-18 -19 0
-17 -18 20 0
17 -20 0
18 -20 0
19 20 21 0
-19 -21 0
-20 -21 0
3 4 22 0
-3 -22 0
-4 -22 0
22 5 23 0
-22 -23 0
-5 -23 0
23 24 25 0
-23 -25 0
-24 -25 0
-23 -24 26 0
23 -26 0
24 -26 0
25 26 27 0
-25 -27 0
-26 -27 0
28 2 29 0
-28 -29 0
-2 -29 0
-28 -2 30 0
28 -30 0
2 -30 0
29 30 31 0
-29 -31 0
-30 -31 0
31 -1 32 0
-31 -32 0
1 -32 0
-32 -33 34 0
32 -34 0
33 -34 0
-31 1 35 0
31 -35 0
-1 -35 0
-35 33 36 0
35 -36 0
-33 -36 0
34 36 37 0
-34 -37 0
-36 -37 0
-27 37 38 0
27 -38 0
-37 -38 0
-21 -38 39 0
21 -39 0
38 -39 0
-15 -39 40 0
15 -40 0
39 -40 0
10 41 42 0
-10 -42 0
-41 -42 0
-10 -41 43 0
10 -43 0
41 -43 0
42 43 44 0
-42 -44 0
-43 -44 0
-44 45 46 0
44 -46 0
-45 -46 0
44 -45 47 0
-44 -47 0
45 -47 0
46 47 48 0
-46 -48 0
-47 -48 0
-40 48 49 0
40 -49 0
-48 -49 0
43 50 51 0
-43 -51 0
-50 -51 0
-43 -50 52 0
43 -52 0
50 -52 0
51 52 53 0
-51 -53 0
-52 -53 0
53 54 55 0
-53 -55 0
-54 -55 0
-53 -54 56 0
53 -56 0
54 -56 0
55 56 57 0
-55 -57 0
-56 -57 0
-49 -57 58 0
49 -58 0
57 -58 0
-59 60 61 0
59 -61 0
-60 -61 0
59 -60 62 0
-59 -62 0
60 -62 0
61 62 63 0
-61 -63 0
-62 -63 0
63 52 64 0
-63 -64 0
-52 -64 0
-63 -52 65 0
63 -65 0
52 -65 0
64 65 66 0
-64 -66 0
-65 -66 0
-58 66 67 0
58 -67 0
-66 -67 0
67 0
